c Reduced graph for 4-FullIns_4_0 generated by Cyril Grelier
p edge 436 3662
e 1 2
e 1 3
e 1 4
e 1 5
e 1 6
e 1 7
e 1 8
e 1 21
e 1 22
e 1 23
e 1 24
e 1 25
e 1 26
e 1 27
e 1 28
e 1 29
e 1 30
e 1 31
e 1 32
e 1 69
e 1 70
e 1 71
e 1 72
e 1 85
e 1 86
e 1 87
e 1 88
e 1 89
e 1 90
e 1 113
e 1 114
e 1 121
e 1 122
e 1 123
e 1 124
e 1 153
e 1 154
e 1 155
e 1 156
e 1 157
e 1 158
e 1 159
e 1 160
e 1 161
e 1 162
e 1 163
e 1 164
e 1 165
e 1 166
e 1 167
e 1 168
e 1 169
e 1 170
e 1 225
e 1 226
e 1 231
e 1 232
e 1 233
e 1 234
e 1 235
e 1 236
e 1 263
e 1 264
e 1 271
e 1 272
e 1 273
e 1 274
e 1 275
e 1 276
e 1 289
e 1 290
e 1 291
e 1 292
e 1 293
e 1 294
e 1 325
e 1 326
e 1 327
e 1 328
e 1 329
e 1 330
e 1 343
e 1 344
e 1 349
e 1 350
e 1 385
e 1 386
e 1 397
e 1 398
e 1 421
e 1 422
e 2 3
e 2 4
e 2 9
e 2 10
e 2 11
e 2 12
e 2 33
e 2 34
e 2 35
e 2 36
e 2 37
e 2 38
e 2 39
e 2 40
e 2 41
e 2 42
e 2 43
e 2 44
e 2 73
e 2 74
e 2 75
e 2 76
e 2 91
e 2 92
e 2 93
e 2 94
e 2 95
e 2 96
e 2 115
e 2 116
e 2 125
e 2 126
e 2 127
e 2 128
e 2 171
e 2 172
e 2 173
e 2 174
e 2 175
e 2 176
e 2 177
e 2 178
e 2 179
e 2 180
e 2 181
e 2 182
e 2 183
e 2 184
e 2 185
e 2 186
e 2 187
e 2 188
e 2 227
e 2 228
e 2 237
e 2 238
e 2 239
e 2 240
e 2 241
e 2 242
e 2 265
e 2 266
e 2 277
e 2 278
e 2 279
e 2 280
e 2 281
e 2 282
e 2 295
e 2 296
e 2 297
e 2 298
e 2 299
e 2 300
e 2 331
e 2 332
e 2 333
e 2 334
e 2 335
e 2 336
e 2 345
e 2 346
e 2 351
e 2 352
e 2 387
e 2 388
e 2 399
e 2 400
e 2 421
e 2 422
e 3 4
e 3 13
e 3 14
e 3 15
e 3 16
e 3 45
e 3 46
e 3 47
e 3 48
e 3 49
e 3 50
e 3 51
e 3 52
e 3 53
e 3 54
e 3 55
e 3 56
e 3 77
e 3 78
e 3 79
e 3 80
e 3 97
e 3 98
e 3 99
e 3 100
e 3 101
e 3 102
e 3 117
e 3 118
e 3 129
e 3 130
e 3 131
e 3 132
e 3 189
e 3 190
e 3 191
e 3 192
e 3 193
e 3 194
e 3 195
e 3 196
e 3 197
e 3 198
e 3 199
e 3 200
e 3 201
e 3 202
e 3 203
e 3 204
e 3 205
e 3 206
e 3 229
e 3 230
e 3 243
e 3 244
e 3 245
e 3 246
e 3 247
e 3 248
e 3 267
e 3 268
e 3 283
e 3 284
e 3 285
e 3 286
e 3 287
e 3 288
e 3 301
e 3 302
e 3 303
e 3 304
e 3 305
e 3 306
e 3 337
e 3 338
e 3 339
e 3 340
e 3 341
e 3 342
e 3 347
e 3 348
e 3 353
e 3 354
e 3 389
e 3 390
e 3 401
e 3 402
e 3 421
e 3 422
e 4 103
e 4 104
e 4 105
e 4 106
e 4 133
e 4 134
e 4 135
e 4 136
e 4 137
e 4 138
e 4 139
e 4 140
e 4 141
e 4 142
e 4 143
e 4 144
e 4 149
e 4 150
e 4 151
e 4 152
e 4 249
e 4 250
e 4 251
e 4 252
e 4 253
e 4 254
e 4 269
e 4 270
e 4 321
e 4 322
e 4 323
e 4 324
e 4 355
e 4 356
e 4 357
e 4 358
e 4 359
e 4 360
e 4 361
e 4 362
e 4 363
e 4 364
e 4 365
e 4 366
e 4 367
e 4 368
e 4 369
e 4 370
e 4 371
e 4 372
e 4 383
e 4 384
e 4 391
e 4 392
e 4 393
e 4 394
e 4 395
e 4 396
e 4 403
e 4 404
e 4 405
e 4 406
e 4 407
e 4 408
e 4 409
e 4 410
e 4 413
e 4 414
e 4 415
e 4 416
e 4 417
e 4 418
e 4 421
e 4 422
e 4 423
e 4 424
e 4 425
e 4 426
e 4 427
e 4 428
e 4 429
e 4 430
e 4 431
e 4 432
e 4 433
e 4 434
e 4 435
e 4 436
e 5 10
e 5 11
e 5 12
e 5 18
e 5 19
e 5 20
e 5 33
e 5 34
e 5 35
e 5 36
e 5 57
e 5 58
e 5 59
e 5 60
e 5 91
e 5 92
e 5 107
e 5 108
e 5 171
e 5 172
e 5 173
e 5 174
e 5 175
e 5 176
e 5 207
e 5 208
e 5 209
e 5 210
e 5 211
e 5 212
e 5 265
e 5 266
e 5 277
e 5 278
e 5 295
e 5 296
e 5 307
e 5 308
e 5 309
e 5 310
e 5 315
e 5 316
e 6 9
e 6 11
e 6 12
e 6 17
e 6 19
e 6 20
e 6 37
e 6 38
e 6 39
e 6 40
e 6 61
e 6 62
e 6 63
e 6 64
e 6 93
e 6 94
e 6 109
e 6 110
e 6 177
e 6 178
e 6 179
e 6 180
e 6 181
e 6 182
e 6 213
e 6 214
e 6 215
e 6 216
e 6 217
e 6 218
e 6 265
e 6 266
e 6 279
e 6 280
e 6 297
e 6 298
e 6 307
e 6 308
e 6 311
e 6 312
e 6 317
e 6 318
e 7 9
e 7 10
e 7 12
e 7 17
e 7 18
e 7 20
e 7 41
e 7 42
e 7 43
e 7 44
e 7 65
e 7 66
e 7 67
e 7 68
e 7 95
e 7 96
e 7 111
e 7 112
e 7 183
e 7 184
e 7 185
e 7 186
e 7 187
e 7 188
e 7 219
e 7 220
e 7 221
e 7 222
e 7 223
e 7 224
e 7 265
e 7 266
e 7 281
e 7 282
e 7 299
e 7 300
e 7 307
e 7 308
e 7 313
e 7 314
e 7 319
e 7 320
e 8 9
e 8 10
e 8 11
e 8 17
e 8 18
e 8 19
e 8 125
e 8 126
e 8 127
e 8 128
e 8 145
e 8 146
e 8 147
e 8 148
e 8 227
e 8 228
e 8 255
e 8 256
e 8 265
e 8 266
e 8 307
e 8 308
e 8 331
e 8 332
e 8 333
e 8 334
e 8 335
e 8 336
e 8 373
e 8 374
e 8 375
e 8 376
e 8 377
e 8 378
e 8 387
e 8 388
e 8 399
e 8 400
e 8 411
e 8 412
e 8 419
e 8 420
e 9 14
e 9 15
e 9 16
e 9 21
e 9 22
e 9 23
e 9 24
e 9 45
e 9 46
e 9 47
e 9 48
e 9 85
e 9 86
e 9 97
e 9 98
e 9 153
e 9 154
e 9 155
e 9 156
e 9 157
e 9 158
e 9 189
e 9 190
e 9 191
e 9 192
e 9 193
e 9 194
e 9 263
e 9 264
e 9 267
e 9 268
e 9 271
e 9 272
e 9 283
e 9 284
e 9 289
e 9 290
e 9 301
e 9 302
e 10 13
e 10 15
e 10 16
e 10 25
e 10 26
e 10 27
e 10 28
e 10 49
e 10 50
e 10 51
e 10 52
e 10 87
e 10 88
e 10 99
e 10 100
e 10 159
e 10 160
e 10 161
e 10 162
e 10 163
e 10 164
e 10 195
e 10 196
e 10 197
e 10 198
e 10 199
e 10 200
e 10 263
e 10 264
e 10 267
e 10 268
e 10 273
e 10 274
e 10 285
e 10 286
e 10 291
e 10 292
e 10 303
e 10 304
e 11 13
e 11 14
e 11 16
e 11 29
e 11 30
e 11 31
e 11 32
e 11 53
e 11 54
e 11 55
e 11 56
e 11 89
e 11 90
e 11 101
e 11 102
e 11 165
e 11 166
e 11 167
e 11 168
e 11 169
e 11 170
e 11 201
e 11 202
e 11 203
e 11 204
e 11 205
e 11 206
e 11 263
e 11 264
e 11 267
e 11 268
e 11 275
e 11 276
e 11 287
e 11 288
e 11 293
e 11 294
e 11 305
e 11 306
e 12 13
e 12 14
e 12 15
e 12 121
e 12 122
e 12 123
e 12 124
e 12 129
e 12 130
e 12 131
e 12 132
e 12 225
e 12 226
e 12 229
e 12 230
e 12 263
e 12 264
e 12 267
e 12 268
e 12 325
e 12 326
e 12 327
e 12 328
e 12 329
e 12 330
e 12 337
e 12 338
e 12 339
e 12 340
e 12 341
e 12 342
e 12 385
e 12 386
e 12 389
e 12 390
e 12 397
e 12 398
e 12 401
e 12 402
e 13 33
e 13 34
e 13 35
e 13 36
e 13 91
e 13 92
e 13 104
e 13 105
e 13 106
e 13 133
e 13 134
e 13 135
e 13 136
e 13 171
e 13 172
e 13 173
e 13 174
e 13 175
e 13 176
e 13 249
e 13 250
e 13 265
e 13 266
e 13 277
e 13 278
e 13 295
e 13 296
e 13 355
e 13 356
e 13 357
e 13 358
e 13 359
e 13 360
e 13 403
e 13 404
e 13 405
e 13 406
e 13 413
e 13 414
e 14 37
e 14 38
e 14 39
e 14 40
e 14 93
e 14 94
e 14 103
e 14 105
e 14 106
e 14 137
e 14 138
e 14 139
e 14 140
e 14 177
e 14 178
e 14 179
e 14 180
e 14 181
e 14 182
e 14 251
e 14 252
e 14 265
e 14 266
e 14 279
e 14 280
e 14 297
e 14 298
e 14 361
e 14 362
e 14 363
e 14 364
e 14 365
e 14 366
e 14 403
e 14 404
e 14 407
e 14 408
e 14 415
e 14 416
e 15 41
e 15 42
e 15 43
e 15 44
e 15 95
e 15 96
e 15 103
e 15 104
e 15 106
e 15 141
e 15 142
e 15 143
e 15 144
e 15 183
e 15 184
e 15 185
e 15 186
e 15 187
e 15 188
e 15 253
e 15 254
e 15 265
e 15 266
e 15 281
e 15 282
e 15 299
e 15 300
e 15 367
e 15 368
e 15 369
e 15 370
e 15 371
e 15 372
e 15 403
e 15 404
e 15 409
e 15 410
e 15 417
e 15 418
e 16 103
e 16 104
e 16 105
e 16 125
e 16 126
e 16 127
e 16 128
e 16 227
e 16 228
e 16 265
e 16 266
e 16 321
e 16 322
e 16 323
e 16 324
e 16 331
e 16 332
e 16 333
e 16 334
e 16 335
e 16 336
e 16 383
e 16 384
e 16 387
e 16 388
e 16 399
e 16 400
e 16 403
e 16 404
e 16 423
e 16 424
e 16 425
e 16 426
e 16 427
e 16 428
e 16 433
e 16 434
e 16 435
e 16 436
e 17 18
e 17 19
e 17 20
e 17 21
e 17 22
e 17 23
e 17 24
e 17 57
e 17 58
e 17 59
e 17 60
e 17 85
e 17 86
e 17 107
e 17 108
e 17 153
e 17 154
e 17 155
e 17 156
e 17 157
e 17 158
e 17 207
e 17 208
e 17 209
e 17 210
e 17 211
e 17 212
e 17 263
e 17 264
e 17 271
e 17 272
e 17 289
e 17 290
e 17 307
e 17 308
e 17 309
e 17 310
e 17 315
e 17 316
e 18 19
e 18 20
e 18 25
e 18 26
e 18 27
e 18 28
e 18 61
e 18 62
e 18 63
e 18 64
e 18 87
e 18 88
e 18 109
e 18 110
e 18 159
e 18 160
e 18 161
e 18 162
e 18 163
e 18 164
e 18 213
e 18 214
e 18 215
e 18 216
e 18 217
e 18 218
e 18 263
e 18 264
e 18 273
e 18 274
e 18 291
e 18 292
e 18 307
e 18 308
e 18 311
e 18 312
e 18 317
e 18 318
e 19 20
e 19 29
e 19 30
e 19 31
e 19 32
e 19 65
e 19 66
e 19 67
e 19 68
e 19 89
e 19 90
e 19 111
e 19 112
e 19 165
e 19 166
e 19 167
e 19 168
e 19 169
e 19 170
e 19 219
e 19 220
e 19 221
e 19 222
e 19 223
e 19 224
e 19 263
e 19 264
e 19 275
e 19 276
e 19 293
e 19 294
e 19 307
e 19 308
e 19 313
e 19 314
e 19 319
e 19 320
e 20 121
e 20 122
e 20 123
e 20 124
e 20 145
e 20 146
e 20 147
e 20 148
e 20 225
e 20 226
e 20 255
e 20 256
e 20 263
e 20 264
e 20 307
e 20 308
e 20 325
e 20 326
e 20 327
e 20 328
e 20 329
e 20 330
e 20 373
e 20 374
e 20 375
e 20 376
e 20 377
e 20 378
e 20 385
e 20 386
e 20 397
e 20 398
e 20 411
e 20 412
e 20 419
e 20 420
e 21 38
e 21 39
e 21 40
e 21 62
e 21 63
e 21 64
e 21 74
e 21 75
e 21 76
e 21 82
e 21 83
e 21 84
e 21 93
e 21 94
e 21 109
e 21 110
e 21 115
e 21 116
e 21 119
e 21 120
e 21 177
e 21 178
e 21 213
e 21 214
e 21 237
e 21 238
e 21 257
e 21 258
e 22 37
e 22 39
e 22 40
e 22 61
e 22 63
e 22 64
e 22 73
e 22 75
e 22 76
e 22 81
e 22 83
e 22 84
e 22 93
e 22 94
e 22 109
e 22 110
e 22 115
e 22 116
e 22 119
e 22 120
e 22 179
e 22 180
e 22 215
e 22 216
e 22 239
e 22 240
e 22 259
e 22 260
e 23 37
e 23 38
e 23 40
e 23 61
e 23 62
e 23 64
e 23 73
e 23 74
e 23 76
e 23 81
e 23 82
e 23 84
e 23 93
e 23 94
e 23 109
e 23 110
e 23 115
e 23 116
e 23 119
e 23 120
e 23 181
e 23 182
e 23 217
e 23 218
e 23 241
e 23 242
e 23 261
e 23 262
e 24 37
e 24 38
e 24 39
e 24 61
e 24 62
e 24 63
e 24 73
e 24 74
e 24 75
e 24 81
e 24 82
e 24 83
e 24 93
e 24 94
e 24 109
e 24 110
e 24 115
e 24 116
e 24 119
e 24 120
e 24 279
e 24 280
e 24 311
e 24 312
e 24 345
e 24 346
e 24 379
e 24 380
e 25 34
e 25 35
e 25 36
e 25 42
e 25 43
e 25 44
e 25 58
e 25 59
e 25 60
e 25 66
e 25 67
e 25 68
e 25 91
e 25 92
e 25 95
e 25 96
e 25 107
e 25 108
e 25 111
e 25 112
e 25 171
e 25 172
e 25 183
e 25 184
e 25 207
e 25 208
e 25 219
e 25 220
e 26 33
e 26 35
e 26 36
e 26 41
e 26 43
e 26 44
e 26 57
e 26 59
e 26 60
e 26 65
e 26 67
e 26 68
e 26 91
e 26 92
e 26 95
e 26 96
e 26 107
e 26 108
e 26 111
e 26 112
e 26 173
e 26 174
e 26 185
e 26 186
e 26 209
e 26 210
e 26 221
e 26 222
e 27 33
e 27 34
e 27 36
e 27 41
e 27 42
e 27 44
e 27 57
e 27 58
e 27 60
e 27 65
e 27 66
e 27 68
e 27 91
e 27 92
e 27 95
e 27 96
e 27 107
e 27 108
e 27 111
e 27 112
e 27 175
e 27 176
e 27 187
e 27 188
e 27 211
e 27 212
e 27 223
e 27 224
e 28 33
e 28 34
e 28 35
e 28 41
e 28 42
e 28 43
e 28 57
e 28 58
e 28 59
e 28 65
e 28 66
e 28 67
e 28 91
e 28 92
e 28 95
e 28 96
e 28 107
e 28 108
e 28 111
e 28 112
e 28 277
e 28 278
e 28 281
e 28 282
e 28 309
e 28 310
e 28 313
e 28 314
e 29 38
e 29 39
e 29 40
e 29 62
e 29 63
e 29 64
e 29 93
e 29 94
e 29 109
e 29 110
e 29 126
e 29 127
e 29 128
e 29 146
e 29 147
e 29 148
e 29 177
e 29 178
e 29 213
e 29 214
e 29 227
e 29 228
e 29 255
e 29 256
e 29 331
e 29 332
e 29 373
e 29 374
e 30 37
e 30 39
e 30 40
e 30 61
e 30 63
e 30 64
e 30 93
e 30 94
e 30 109
e 30 110
e 30 125
e 30 127
e 30 128
e 30 145
e 30 147
e 30 148
e 30 179
e 30 180
e 30 215
e 30 216
e 30 227
e 30 228
e 30 255
e 30 256
e 30 333
e 30 334
e 30 375
e 30 376
e 31 37
e 31 38
e 31 40
e 31 61
e 31 62
e 31 64
e 31 93
e 31 94
e 31 109
e 31 110
e 31 125
e 31 126
e 31 128
e 31 145
e 31 146
e 31 148
e 31 181
e 31 182
e 31 217
e 31 218
e 31 227
e 31 228
e 31 255
e 31 256
e 31 335
e 31 336
e 31 377
e 31 378
e 32 37
e 32 38
e 32 39
e 32 61
e 32 62
e 32 63
e 32 93
e 32 94
e 32 109
e 32 110
e 32 125
e 32 126
e 32 127
e 32 145
e 32 146
e 32 147
e 32 227
e 32 228
e 32 255
e 32 256
e 32 279
e 32 280
e 32 311
e 32 312
e 32 387
e 32 388
e 32 411
e 32 412
e 33 50
e 33 51
e 33 52
e 33 70
e 33 71
e 33 72
e 33 78
e 33 79
e 33 80
e 33 87
e 33 88
e 33 99
e 33 100
e 33 113
e 33 114
e 33 117
e 33 118
e 33 159
e 33 160
e 33 195
e 33 196
e 33 231
e 33 232
e 33 243
e 33 244
e 34 49
e 34 51
e 34 52
e 34 69
e 34 71
e 34 72
e 34 77
e 34 79
e 34 80
e 34 87
e 34 88
e 34 99
e 34 100
e 34 113
e 34 114
e 34 117
e 34 118
e 34 161
e 34 162
e 34 197
e 34 198
e 34 233
e 34 234
e 34 245
e 34 246
e 35 49
e 35 50
e 35 52
e 35 69
e 35 70
e 35 72
e 35 77
e 35 78
e 35 80
e 35 87
e 35 88
e 35 99
e 35 100
e 35 113
e 35 114
e 35 117
e 35 118
e 35 163
e 35 164
e 35 199
e 35 200
e 35 235
e 35 236
e 35 247
e 35 248
e 36 49
e 36 50
e 36 51
e 36 69
e 36 70
e 36 71
e 36 77
e 36 78
e 36 79
e 36 87
e 36 88
e 36 99
e 36 100
e 36 113
e 36 114
e 36 117
e 36 118
e 36 273
e 36 274
e 36 285
e 36 286
e 36 343
e 36 344
e 36 347
e 36 348
e 37 46
e 37 47
e 37 48
e 37 54
e 37 55
e 37 56
e 37 85
e 37 86
e 37 89
e 37 90
e 37 97
e 37 98
e 37 101
e 37 102
e 37 153
e 37 154
e 37 165
e 37 166
e 37 189
e 37 190
e 37 201
e 37 202
e 38 45
e 38 47
e 38 48
e 38 53
e 38 55
e 38 56
e 38 85
e 38 86
e 38 89
e 38 90
e 38 97
e 38 98
e 38 101
e 38 102
e 38 155
e 38 156
e 38 167
e 38 168
e 38 191
e 38 192
e 38 203
e 38 204
e 39 45
e 39 46
e 39 48
e 39 53
e 39 54
e 39 56
e 39 85
e 39 86
e 39 89
e 39 90
e 39 97
e 39 98
e 39 101
e 39 102
e 39 157
e 39 158
e 39 169
e 39 170
e 39 193
e 39 194
e 39 205
e 39 206
e 40 45
e 40 46
e 40 47
e 40 53
e 40 54
e 40 55
e 40 85
e 40 86
e 40 89
e 40 90
e 40 97
e 40 98
e 40 101
e 40 102
e 40 271
e 40 272
e 40 275
e 40 276
e 40 283
e 40 284
e 40 287
e 40 288
e 41 50
e 41 51
e 41 52
e 41 87
e 41 88
e 41 99
e 41 100
e 41 122
e 41 123
e 41 124
e 41 130
e 41 131
e 41 132
e 41 159
e 41 160
e 41 195
e 41 196
e 41 225
e 41 226
e 41 229
e 41 230
e 41 325
e 41 326
e 41 337
e 41 338
e 42 49
e 42 51
e 42 52
e 42 87
e 42 88
e 42 99
e 42 100
e 42 121
e 42 123
e 42 124
e 42 129
e 42 131
e 42 132
e 42 161
e 42 162
e 42 197
e 42 198
e 42 225
e 42 226
e 42 229
e 42 230
e 42 327
e 42 328
e 42 339
e 42 340
e 43 49
e 43 50
e 43 52
e 43 87
e 43 88
e 43 99
e 43 100
e 43 121
e 43 122
e 43 124
e 43 129
e 43 130
e 43 132
e 43 163
e 43 164
e 43 199
e 43 200
e 43 225
e 43 226
e 43 229
e 43 230
e 43 329
e 43 330
e 43 341
e 43 342
e 44 49
e 44 50
e 44 51
e 44 87
e 44 88
e 44 99
e 44 100
e 44 121
e 44 122
e 44 123
e 44 129
e 44 130
e 44 131
e 44 225
e 44 226
e 44 229
e 44 230
e 44 273
e 44 274
e 44 285
e 44 286
e 44 385
e 44 386
e 44 389
e 44 390
e 45 74
e 45 75
e 45 76
e 45 93
e 45 94
e 45 103
e 45 115
e 45 116
e 45 138
e 45 139
e 45 140
e 45 150
e 45 151
e 45 152
e 45 177
e 45 178
e 45 237
e 45 238
e 45 251
e 45 252
e 45 269
e 45 270
e 45 361
e 45 362
e 45 391
e 45 392
e 46 73
e 46 75
e 46 76
e 46 93
e 46 94
e 46 103
e 46 115
e 46 116
e 46 137
e 46 139
e 46 140
e 46 149
e 46 151
e 46 152
e 46 179
e 46 180
e 46 239
e 46 240
e 46 251
e 46 252
e 46 269
e 46 270
e 46 363
e 46 364
e 46 393
e 46 394
e 47 73
e 47 74
e 47 76
e 47 93
e 47 94
e 47 103
e 47 115
e 47 116
e 47 137
e 47 138
e 47 140
e 47 149
e 47 150
e 47 152
e 47 181
e 47 182
e 47 241
e 47 242
e 47 251
e 47 252
e 47 269
e 47 270
e 47 365
e 47 366
e 47 395
e 47 396
e 48 73
e 48 74
e 48 75
e 48 93
e 48 94
e 48 103
e 48 115
e 48 116
e 48 137
e 48 138
e 48 139
e 48 149
e 48 150
e 48 151
e 48 251
e 48 252
e 48 269
e 48 270
e 48 279
e 48 280
e 48 345
e 48 346
e 48 407
e 48 408
e 48 429
e 48 430
e 49 91
e 49 92
e 49 95
e 49 96
e 49 104
e 49 134
e 49 135
e 49 136
e 49 142
e 49 143
e 49 144
e 49 171
e 49 172
e 49 183
e 49 184
e 49 249
e 49 250
e 49 253
e 49 254
e 49 355
e 49 356
e 49 367
e 49 368
e 50 91
e 50 92
e 50 95
e 50 96
e 50 104
e 50 133
e 50 135
e 50 136
e 50 141
e 50 143
e 50 144
e 50 173
e 50 174
e 50 185
e 50 186
e 50 249
e 50 250
e 50 253
e 50 254
e 50 357
e 50 358
e 50 369
e 50 370
e 51 91
e 51 92
e 51 95
e 51 96
e 51 104
e 51 133
e 51 134
e 51 136
e 51 141
e 51 142
e 51 144
e 51 175
e 51 176
e 51 187
e 51 188
e 51 249
e 51 250
e 51 253
e 51 254
e 51 359
e 51 360
e 51 371
e 51 372
e 52 91
e 52 92
e 52 95
e 52 96
e 52 104
e 52 133
e 52 134
e 52 135
e 52 141
e 52 142
e 52 143
e 52 249
e 52 250
e 52 253
e 52 254
e 52 277
e 52 278
e 52 281
e 52 282
e 52 405
e 52 406
e 52 409
e 52 410
e 53 93
e 53 94
e 53 105
e 53 126
e 53 127
e 53 128
e 53 138
e 53 139
e 53 140
e 53 177
e 53 178
e 53 227
e 53 228
e 53 251
e 53 252
e 53 322
e 53 323
e 53 324
e 53 331
e 53 332
e 53 361
e 53 362
e 53 383
e 53 384
e 53 423
e 53 424
e 54 93
e 54 94
e 54 105
e 54 125
e 54 127
e 54 128
e 54 137
e 54 139
e 54 140
e 54 179
e 54 180
e 54 227
e 54 228
e 54 251
e 54 252
e 54 321
e 54 323
e 54 324
e 54 333
e 54 334
e 54 363
e 54 364
e 54 383
e 54 384
e 54 425
e 54 426
e 55 93
e 55 94
e 55 105
e 55 125
e 55 126
e 55 128
e 55 137
e 55 138
e 55 140
e 55 181
e 55 182
e 55 227
e 55 228
e 55 251
e 55 252
e 55 321
e 55 322
e 55 324
e 55 335
e 55 336
e 55 365
e 55 366
e 55 383
e 55 384
e 55 427
e 55 428
e 56 93
e 56 94
e 56 105
e 56 125
e 56 126
e 56 127
e 56 137
e 56 138
e 56 139
e 56 227
e 56 228
e 56 251
e 56 252
e 56 279
e 56 280
e 56 321
e 56 322
e 56 323
e 56 383
e 56 384
e 56 387
e 56 388
e 56 407
e 56 408
e 56 433
e 56 434
e 57 62
e 57 63
e 57 64
e 57 70
e 57 71
e 57 72
e 57 82
e 57 83
e 57 84
e 57 87
e 57 88
e 57 109
e 57 110
e 57 113
e 57 114
e 57 119
e 57 120
e 57 159
e 57 160
e 57 213
e 57 214
e 57 231
e 57 232
e 57 257
e 57 258
e 58 61
e 58 63
e 58 64
e 58 69
e 58 71
e 58 72
e 58 81
e 58 83
e 58 84
e 58 87
e 58 88
e 58 109
e 58 110
e 58 113
e 58 114
e 58 119
e 58 120
e 58 161
e 58 162
e 58 215
e 58 216
e 58 233
e 58 234
e 58 259
e 58 260
e 59 61
e 59 62
e 59 64
e 59 69
e 59 70
e 59 72
e 59 81
e 59 82
e 59 84
e 59 87
e 59 88
e 59 109
e 59 110
e 59 113
e 59 114
e 59 119
e 59 120
e 59 163
e 59 164
e 59 217
e 59 218
e 59 235
e 59 236
e 59 261
e 59 262
e 60 61
e 60 62
e 60 63
e 60 69
e 60 70
e 60 71
e 60 81
e 60 82
e 60 83
e 60 87
e 60 88
e 60 109
e 60 110
e 60 113
e 60 114
e 60 119
e 60 120
e 60 273
e 60 274
e 60 311
e 60 312
e 60 343
e 60 344
e 60 379
e 60 380
e 61 66
e 61 67
e 61 68
e 61 85
e 61 86
e 61 89
e 61 90
e 61 107
e 61 108
e 61 111
e 61 112
e 61 153
e 61 154
e 61 165
e 61 166
e 61 207
e 61 208
e 61 219
e 61 220
e 62 65
e 62 67
e 62 68
e 62 85
e 62 86
e 62 89
e 62 90
e 62 107
e 62 108
e 62 111
e 62 112
e 62 155
e 62 156
e 62 167
e 62 168
e 62 209
e 62 210
e 62 221
e 62 222
e 63 65
e 63 66
e 63 68
e 63 85
e 63 86
e 63 89
e 63 90
e 63 107
e 63 108
e 63 111
e 63 112
e 63 157
e 63 158
e 63 169
e 63 170
e 63 211
e 63 212
e 63 223
e 63 224
e 64 65
e 64 66
e 64 67
e 64 85
e 64 86
e 64 89
e 64 90
e 64 107
e 64 108
e 64 111
e 64 112
e 64 271
e 64 272
e 64 275
e 64 276
e 64 309
e 64 310
e 64 313
e 64 314
e 65 87
e 65 88
e 65 109
e 65 110
e 65 122
e 65 123
e 65 124
e 65 146
e 65 147
e 65 148
e 65 159
e 65 160
e 65 213
e 65 214
e 65 225
e 65 226
e 65 255
e 65 256
e 65 325
e 65 326
e 65 373
e 65 374
e 66 87
e 66 88
e 66 109
e 66 110
e 66 121
e 66 123
e 66 124
e 66 145
e 66 147
e 66 148
e 66 161
e 66 162
e 66 215
e 66 216
e 66 225
e 66 226
e 66 255
e 66 256
e 66 327
e 66 328
e 66 375
e 66 376
e 67 87
e 67 88
e 67 109
e 67 110
e 67 121
e 67 122
e 67 124
e 67 145
e 67 146
e 67 148
e 67 163
e 67 164
e 67 217
e 67 218
e 67 225
e 67 226
e 67 255
e 67 256
e 67 329
e 67 330
e 67 377
e 67 378
e 68 87
e 68 88
e 68 109
e 68 110
e 68 121
e 68 122
e 68 123
e 68 145
e 68 146
e 68 147
e 68 225
e 68 226
e 68 255
e 68 256
e 68 273
e 68 274
e 68 311
e 68 312
e 68 385
e 68 386
e 68 411
e 68 412
e 69 74
e 69 75
e 69 76
e 69 82
e 69 83
e 69 84
e 69 91
e 69 92
e 69 107
e 69 108
e 69 115
e 69 116
e 69 119
e 69 120
e 69 171
e 69 172
e 69 207
e 69 208
e 69 237
e 69 238
e 69 257
e 69 258
e 70 73
e 70 75
e 70 76
e 70 81
e 70 83
e 70 84
e 70 91
e 70 92
e 70 107
e 70 108
e 70 115
e 70 116
e 70 119
e 70 120
e 70 173
e 70 174
e 70 209
e 70 210
e 70 239
e 70 240
e 70 259
e 70 260
e 71 73
e 71 74
e 71 76
e 71 81
e 71 82
e 71 84
e 71 91
e 71 92
e 71 107
e 71 108
e 71 115
e 71 116
e 71 119
e 71 120
e 71 175
e 71 176
e 71 211
e 71 212
e 71 241
e 71 242
e 71 261
e 71 262
e 72 73
e 72 74
e 72 75
e 72 81
e 72 82
e 72 83
e 72 91
e 72 92
e 72 107
e 72 108
e 72 115
e 72 116
e 72 119
e 72 120
e 72 277
e 72 278
e 72 309
e 72 310
e 72 345
e 72 346
e 72 379
e 72 380
e 73 78
e 73 79
e 73 80
e 73 85
e 73 86
e 73 97
e 73 98
e 73 113
e 73 114
e 73 117
e 73 118
e 73 153
e 73 154
e 73 189
e 73 190
e 73 231
e 73 232
e 73 243
e 73 244
e 74 77
e 74 79
e 74 80
e 74 85
e 74 86
e 74 97
e 74 98
e 74 113
e 74 114
e 74 117
e 74 118
e 74 155
e 74 156
e 74 191
e 74 192
e 74 233
e 74 234
e 74 245
e 74 246
e 75 77
e 75 78
e 75 80
e 75 85
e 75 86
e 75 97
e 75 98
e 75 113
e 75 114
e 75 117
e 75 118
e 75 157
e 75 158
e 75 193
e 75 194
e 75 235
e 75 236
e 75 247
e 75 248
e 76 77
e 76 78
e 76 79
e 76 85
e 76 86
e 76 97
e 76 98
e 76 113
e 76 114
e 76 117
e 76 118
e 76 271
e 76 272
e 76 283
e 76 284
e 76 343
e 76 344
e 76 347
e 76 348
e 77 91
e 77 92
e 77 115
e 77 116
e 77 134
e 77 135
e 77 136
e 77 150
e 77 151
e 77 152
e 77 171
e 77 172
e 77 237
e 77 238
e 77 249
e 77 250
e 77 269
e 77 270
e 77 355
e 77 356
e 77 391
e 77 392
e 78 91
e 78 92
e 78 115
e 78 116
e 78 133
e 78 135
e 78 136
e 78 149
e 78 151
e 78 152
e 78 173
e 78 174
e 78 239
e 78 240
e 78 249
e 78 250
e 78 269
e 78 270
e 78 357
e 78 358
e 78 393
e 78 394
e 79 91
e 79 92
e 79 115
e 79 116
e 79 133
e 79 134
e 79 136
e 79 149
e 79 150
e 79 152
e 79 175
e 79 176
e 79 241
e 79 242
e 79 249
e 79 250
e 79 269
e 79 270
e 79 359
e 79 360
e 79 395
e 79 396
e 80 91
e 80 92
e 80 115
e 80 116
e 80 133
e 80 134
e 80 135
e 80 149
e 80 150
e 80 151
e 80 249
e 80 250
e 80 269
e 80 270
e 80 277
e 80 278
e 80 345
e 80 346
e 80 405
e 80 406
e 80 429
e 80 430
e 81 82
e 81 83
e 81 84
e 81 85
e 81 86
e 81 107
e 81 108
e 81 113
e 81 114
e 81 119
e 81 120
e 81 153
e 81 154
e 81 207
e 81 208
e 81 231
e 81 232
e 81 257
e 81 258
e 82 83
e 82 84
e 82 85
e 82 86
e 82 107
e 82 108
e 82 113
e 82 114
e 82 119
e 82 120
e 82 155
e 82 156
e 82 209
e 82 210
e 82 233
e 82 234
e 82 259
e 82 260
e 83 84
e 83 85
e 83 86
e 83 107
e 83 108
e 83 113
e 83 114
e 83 119
e 83 120
e 83 157
e 83 158
e 83 211
e 83 212
e 83 235
e 83 236
e 83 261
e 83 262
e 84 85
e 84 86
e 84 107
e 84 108
e 84 113
e 84 114
e 84 119
e 84 120
e 84 271
e 84 272
e 84 309
e 84 310
e 84 343
e 84 344
e 84 379
e 84 380
e 85 94
e 85 110
e 85 116
e 85 120
e 86 93
e 86 109
e 86 115
e 86 119
e 87 92
e 87 96
e 87 108
e 87 112
e 88 91
e 88 95
e 88 107
e 88 111
e 89 94
e 89 110
e 89 125
e 89 126
e 89 127
e 89 128
e 89 145
e 89 146
e 89 147
e 89 148
e 89 228
e 89 256
e 90 93
e 90 109
e 90 125
e 90 126
e 90 127
e 90 128
e 90 145
e 90 146
e 90 147
e 90 148
e 90 227
e 90 255
e 91 100
e 91 114
e 91 118
e 92 99
e 92 113
e 92 117
e 93 98
e 93 102
e 94 97
e 94 101
e 95 100
e 95 121
e 95 122
e 95 123
e 95 124
e 95 129
e 95 130
e 95 131
e 95 132
e 95 226
e 95 230
e 96 99
e 96 121
e 96 122
e 96 123
e 96 124
e 96 129
e 96 130
e 96 131
e 96 132
e 96 225
e 96 229
e 97 103
e 97 116
e 97 137
e 97 138
e 97 139
e 97 140
e 97 149
e 97 150
e 97 151
e 97 152
e 97 252
e 97 270
e 98 103
e 98 115
e 98 137
e 98 138
e 98 139
e 98 140
e 98 149
e 98 150
e 98 151
e 98 152
e 98 251
e 98 269
e 99 104
e 99 133
e 99 134
e 99 135
e 99 136
e 99 141
e 99 142
e 99 143
e 99 144
e 99 250
e 99 254
e 100 104
e 100 133
e 100 134
e 100 135
e 100 136
e 100 141
e 100 142
e 100 143
e 100 144
e 100 249
e 100 253
e 101 105
e 101 125
e 101 126
e 101 127
e 101 128
e 101 137
e 101 138
e 101 139
e 101 140
e 101 228
e 101 252
e 101 321
e 101 322
e 101 323
e 101 324
e 101 384
e 102 105
e 102 125
e 102 126
e 102 127
e 102 128
e 102 137
e 102 138
e 102 139
e 102 140
e 102 227
e 102 251
e 102 321
e 102 322
e 102 323
e 102 324
e 102 383
e 103 189
e 103 190
e 103 191
e 103 192
e 103 193
e 103 194
e 103 267
e 103 268
e 103 283
e 103 284
e 103 301
e 103 302
e 104 195
e 104 196
e 104 197
e 104 198
e 104 199
e 104 200
e 104 267
e 104 268
e 104 285
e 104 286
e 104 303
e 104 304
e 105 201
e 105 202
e 105 203
e 105 204
e 105 205
e 105 206
e 105 267
e 105 268
e 105 287
e 105 288
e 105 305
e 105 306
e 106 129
e 106 130
e 106 131
e 106 132
e 106 229
e 106 230
e 106 267
e 106 268
e 106 337
e 106 338
e 106 339
e 106 340
e 106 341
e 106 342
e 106 389
e 106 390
e 106 401
e 106 402
e 107 110
e 107 114
e 107 120
e 108 109
e 108 113
e 108 119
e 109 112
e 110 111
e 111 121
e 111 122
e 111 123
e 111 124
e 111 145
e 111 146
e 111 147
e 111 148
e 111 226
e 111 256
e 112 121
e 112 122
e 112 123
e 112 124
e 112 145
e 112 146
e 112 147
e 112 148
e 112 225
e 112 255
e 113 116
e 113 120
e 114 115
e 114 119
e 115 118
e 116 117
e 117 133
e 117 134
e 117 135
e 117 136
e 117 149
e 117 150
e 117 151
e 117 152
e 117 250
e 117 270
e 118 133
e 118 134
e 118 135
e 118 136
e 118 149
e 118 150
e 118 151
e 118 152
e 118 249
e 118 269
e 119 120
e 121 183
e 121 184
e 121 219
e 121 220
e 122 185
e 122 186
e 122 221
e 122 222
e 123 187
e 123 188
e 123 223
e 123 224
e 124 281
e 124 282
e 124 313
e 124 314
e 125 165
e 125 166
e 125 201
e 125 202
e 126 167
e 126 168
e 126 203
e 126 204
e 127 169
e 127 170
e 127 205
e 127 206
e 128 275
e 128 276
e 128 287
e 128 288
e 129 142
e 129 143
e 129 144
e 129 183
e 129 184
e 129 253
e 129 254
e 129 367
e 129 368
e 130 141
e 130 143
e 130 144
e 130 185
e 130 186
e 130 253
e 130 254
e 130 369
e 130 370
e 131 141
e 131 142
e 131 144
e 131 187
e 131 188
e 131 253
e 131 254
e 131 371
e 131 372
e 132 141
e 132 142
e 132 143
e 132 253
e 132 254
e 132 281
e 132 282
e 132 409
e 132 410
e 133 195
e 133 196
e 133 243
e 133 244
e 134 197
e 134 198
e 134 245
e 134 246
e 135 199
e 135 200
e 135 247
e 135 248
e 136 285
e 136 286
e 136 347
e 136 348
e 137 189
e 137 190
e 137 201
e 137 202
e 138 191
e 138 192
e 138 203
e 138 204
e 139 193
e 139 194
e 139 205
e 139 206
e 140 283
e 140 284
e 140 287
e 140 288
e 141 195
e 141 196
e 141 229
e 141 230
e 141 337
e 141 338
e 142 197
e 142 198
e 142 229
e 142 230
e 142 339
e 142 340
e 143 199
e 143 200
e 143 229
e 143 230
e 143 341
e 143 342
e 144 229
e 144 230
e 144 285
e 144 286
e 144 389
e 144 390
e 145 165
e 145 166
e 145 219
e 145 220
e 146 167
e 146 168
e 146 221
e 146 222
e 147 169
e 147 170
e 147 223
e 147 224
e 148 275
e 148 276
e 148 313
e 148 314
e 149 189
e 149 190
e 149 243
e 149 244
e 150 191
e 150 192
e 150 245
e 150 246
e 151 193
e 151 194
e 151 247
e 151 248
e 152 283
e 152 284
e 152 347
e 152 348
e 153 180
e 153 216
e 153 240
e 153 260
e 153 298
e 153 318
e 153 352
e 153 382
e 154 179
e 154 215
e 154 239
e 154 259
e 154 297
e 154 317
e 154 351
e 154 381
e 155 178
e 155 182
e 155 214
e 155 218
e 155 238
e 155 242
e 155 258
e 155 262
e 156 177
e 156 181
e 156 213
e 156 217
e 156 237
e 156 241
e 156 257
e 156 261
e 157 180
e 157 216
e 157 240
e 157 260
e 157 280
e 157 312
e 157 346
e 157 380
e 158 179
e 158 215
e 158 239
e 158 259
e 158 279
e 158 311
e 158 345
e 158 379
e 159 174
e 159 186
e 159 210
e 159 222
e 159 296
e 159 300
e 159 316
e 159 320
e 160 173
e 160 185
e 160 209
e 160 221
e 160 295
e 160 299
e 160 315
e 160 319
e 161 172
e 161 176
e 161 184
e 161 188
e 161 208
e 161 212
e 161 220
e 161 224
e 162 171
e 162 175
e 162 183
e 162 187
e 162 207
e 162 211
e 162 219
e 162 223
e 163 174
e 163 186
e 163 210
e 163 222
e 163 278
e 163 282
e 163 310
e 163 314
e 164 173
e 164 185
e 164 209
e 164 221
e 164 277
e 164 281
e 164 309
e 164 313
e 165 180
e 165 216
e 165 298
e 165 318
e 165 334
e 165 376
e 165 400
e 165 420
e 166 179
e 166 215
e 166 297
e 166 317
e 166 333
e 166 375
e 166 399
e 166 419
e 167 178
e 167 182
e 167 214
e 167 218
e 167 332
e 167 336
e 167 374
e 167 378
e 168 177
e 168 181
e 168 213
e 168 217
e 168 331
e 168 335
e 168 373
e 168 377
e 169 180
e 169 216
e 169 280
e 169 312
e 169 334
e 169 376
e 169 388
e 169 412
e 170 179
e 170 215
e 170 279
e 170 311
e 170 333
e 170 375
e 170 387
e 170 411
e 171 198
e 171 234
e 171 246
e 171 292
e 171 304
e 171 350
e 171 354
e 172 197
e 172 233
e 172 245
e 172 291
e 172 303
e 172 349
e 172 353
e 173 196
e 173 200
e 173 232
e 173 236
e 173 244
e 173 248
e 174 195
e 174 199
e 174 231
e 174 235
e 174 243
e 174 247
e 175 198
e 175 234
e 175 246
e 175 274
e 175 286
e 175 344
e 175 348
e 176 197
e 176 233
e 176 245
e 176 273
e 176 285
e 176 343
e 176 347
e 177 192
e 177 204
e 177 290
e 177 294
e 177 302
e 177 306
e 178 191
e 178 203
e 178 289
e 178 293
e 178 301
e 178 305
e 179 190
e 179 194
e 179 202
e 179 206
e 180 189
e 180 193
e 180 201
e 180 205
e 181 192
e 181 204
e 181 272
e 181 276
e 181 284
e 181 288
e 182 191
e 182 203
e 182 271
e 182 275
e 182 283
e 182 287
e 183 198
e 183 292
e 183 304
e 183 328
e 183 340
e 183 398
e 183 402
e 184 197
e 184 291
e 184 303
e 184 327
e 184 339
e 184 397
e 184 401
e 185 196
e 185 200
e 185 326
e 185 330
e 185 338
e 185 342
e 186 195
e 186 199
e 186 325
e 186 329
e 186 337
e 186 341
e 187 198
e 187 274
e 187 286
e 187 328
e 187 340
e 187 386
e 187 390
e 188 197
e 188 273
e 188 285
e 188 327
e 188 339
e 188 385
e 188 389
e 189 240
e 189 298
e 189 352
e 189 364
e 189 394
e 189 416
e 189 432
e 190 239
e 190 297
e 190 351
e 190 363
e 190 393
e 190 415
e 190 431
e 191 238
e 191 242
e 191 362
e 191 366
e 191 392
e 191 396
e 192 237
e 192 241
e 192 361
e 192 365
e 192 391
e 192 395
e 193 240
e 193 280
e 193 346
e 193 364
e 193 394
e 193 408
e 193 430
e 194 239
e 194 279
e 194 345
e 194 363
e 194 393
e 194 407
e 194 429
e 195 296
e 195 300
e 195 358
e 195 370
e 195 414
e 195 418
e 196 295
e 196 299
e 196 357
e 196 369
e 196 413
e 196 417
e 197 356
e 197 360
e 197 368
e 197 372
e 198 355
e 198 359
e 198 367
e 198 371
e 199 278
e 199 282
e 199 358
e 199 370
e 199 406
e 199 410
e 200 277
e 200 281
e 200 357
e 200 369
e 200 405
e 200 409
e 201 298
e 201 321
e 201 334
e 201 364
e 201 400
e 201 416
e 201 426
e 201 436
e 202 297
e 202 321
e 202 333
e 202 363
e 202 399
e 202 415
e 202 425
e 202 435
e 203 322
e 203 332
e 203 336
e 203 362
e 203 366
e 203 424
e 203 428
e 204 322
e 204 331
e 204 335
e 204 361
e 204 365
e 204 423
e 204 427
e 205 280
e 205 323
e 205 334
e 205 364
e 205 388
e 205 408
e 205 426
e 205 434
e 206 279
e 206 323
e 206 333
e 206 363
e 206 387
e 206 407
e 206 425
e 206 433
e 207 216
e 207 234
e 207 260
e 207 292
e 207 318
e 207 350
e 207 382
e 208 215
e 208 233
e 208 259
e 208 291
e 208 317
e 208 349
e 208 381
e 209 214
e 209 218
e 209 232
e 209 236
e 209 258
e 209 262
e 210 213
e 210 217
e 210 231
e 210 235
e 210 257
e 210 261
e 211 216
e 211 234
e 211 260
e 211 274
e 211 312
e 211 344
e 211 380
e 212 215
e 212 233
e 212 259
e 212 273
e 212 311
e 212 343
e 212 379
e 213 222
e 213 290
e 213 294
e 213 316
e 213 320
e 214 221
e 214 289
e 214 293
e 214 315
e 214 319
e 215 220
e 215 224
e 216 219
e 216 223
e 217 222
e 217 272
e 217 276
e 217 310
e 217 314
e 218 221
e 218 271
e 218 275
e 218 309
e 218 313
e 219 292
e 219 318
e 219 328
e 219 376
e 219 398
e 219 420
e 220 291
e 220 317
e 220 327
e 220 375
e 220 397
e 220 419
e 221 326
e 221 330
e 221 374
e 221 378
e 222 325
e 222 329
e 222 373
e 222 377
e 223 274
e 223 312
e 223 328
e 223 376
e 223 386
e 223 412
e 224 273
e 224 311
e 224 327
e 224 375
e 224 385
e 224 411
e 229 254
e 230 253
e 231 240
e 231 260
e 231 296
e 231 316
e 231 352
e 231 382
e 232 239
e 232 259
e 232 295
e 232 315
e 232 351
e 232 381
e 233 238
e 233 242
e 233 258
e 233 262
e 234 237
e 234 241
e 234 257
e 234 261
e 235 240
e 235 260
e 235 278
e 235 310
e 235 346
e 235 380
e 236 239
e 236 259
e 236 277
e 236 309
e 236 345
e 236 379
e 237 246
e 237 290
e 237 302
e 237 350
e 237 354
e 238 245
e 238 289
e 238 301
e 238 349
e 238 353
e 239 244
e 239 248
e 240 243
e 240 247
e 241 246
e 241 272
e 241 284
e 241 344
e 241 348
e 242 245
e 242 271
e 242 283
e 242 343
e 242 347
e 243 296
e 243 352
e 243 358
e 243 394
e 243 414
e 243 432
e 244 295
e 244 351
e 244 357
e 244 393
e 244 413
e 244 431
e 245 356
e 245 360
e 245 392
e 245 396
e 246 355
e 246 359
e 246 391
e 246 395
e 247 278
e 247 346
e 247 358
e 247 394
e 247 406
e 247 430
e 248 277
e 248 345
e 248 357
e 248 393
e 248 405
e 248 429
e 257 260
e 257 290
e 257 316
e 257 350
e 257 382
e 258 259
e 258 289
e 258 315
e 258 349
e 258 381
e 259 262
e 260 261
e 261 272
e 261 310
e 261 344
e 261 380
e 262 271
e 262 309
e 262 343
e 262 379
e 263 266
e 263 308
e 264 265
e 264 307
e 265 268
e 266 267
e 267 404
e 268 403
e 275 336
e 275 378
e 276 335
e 276 377
e 281 330
e 281 342
e 282 329
e 282 341
e 283 366
e 283 396
e 284 365
e 284 395
e 285 360
e 285 372
e 286 359
e 286 371
e 287 324
e 287 336
e 287 366
e 287 428
e 288 324
e 288 335
e 288 365
e 288 427
e 289 298
e 289 318
e 289 352
e 289 382
e 290 297
e 290 317
e 290 351
e 290 381
e 291 296
e 291 300
e 291 316
e 291 320
e 292 295
e 292 299
e 292 315
e 292 319
e 293 298
e 293 318
e 293 332
e 293 374
e 293 400
e 293 420
e 294 297
e 294 317
e 294 331
e 294 373
e 294 399
e 294 419
e 295 304
e 295 350
e 295 354
e 296 303
e 296 349
e 296 353
e 297 302
e 297 306
e 298 301
e 298 305
e 299 304
e 299 326
e 299 338
e 299 398
e 299 402
e 300 303
e 300 325
e 300 337
e 300 397
e 300 401
e 301 352
e 301 362
e 301 392
e 301 416
e 301 432
e 302 351
e 302 361
e 302 391
e 302 415
e 302 431
e 303 356
e 303 368
e 303 414
e 303 418
e 304 355
e 304 367
e 304 413
e 304 417
e 305 332
e 305 362
e 305 400
e 305 416
e 305 424
e 305 436
e 306 331
e 306 361
e 306 399
e 306 415
e 306 423
e 306 435
e 307 308
e 313 330
e 313 378
e 314 329
e 314 377
e 315 318
e 315 350
e 315 382
e 316 317
e 316 349
e 316 381
e 317 320
e 318 319
e 319 326
e 319 374
e 319 398
e 319 420
e 320 325
e 320 373
e 320 397
e 320 419
e 337 370
e 337 418
e 338 369
e 338 417
e 339 368
e 339 372
e 340 367
e 340 371
e 341 370
e 341 410
e 342 369
e 342 409
e 347 360
e 347 396
e 348 359
e 348 395
e 349 352
e 349 382
e 350 351
e 350 381
e 351 354
e 352 353
e 353 356
e 353 392
e 353 414
e 353 432
e 354 355
e 354 391
e 354 413
e 354 431
e 367 402
e 368 401
e 371 390
e 372 389
e 381 382
e 401 418
e 402 417
e 421 422
